Test: hole015_shuffled.cnf
Options: -no-inverting-opt -sym-usage-var-bump
WARNING: for repeatability, setting FPU to use double precision
============================[ Problem Statistics ]=============================
|                                                                             |
|  Number of symmetries:           29                                         |
|  Number of invertingSyms:         0                                         |
|  Number of variables:           240                                         |
|  Number of clauses:            1816                                         |
|  Parse time:                   0.00 s                                       |
|                                                                             |
============================[ Search Statistics ]==============================
| Conflicts |          ORIGINAL         |          LEARNT          | Progress |
|           |    Vars  Clauses Literals |    Limit  Clauses Lit/Cl |          |
===============================================================================
|       100 |     240     1816     3840 |      665      106     91 |  0.002 % |
|       250 |     240     1816     3840 |      732      302     77 |  0.002 % |
|       475 |     240     1816     3840 |      805      621     65 |  0.002 % |
|       812 |     240     1816     3840 |      886      788     56 |  0.002 % |
|      1318 |     240     1816     3840 |      974      526     68 |  0.002 % |
|      2077 |     240     1816     3840 |     1072      597     65 |  0.002 % |
|      3216 |     240     1816     3840 |     1179     1070     79 |  0.002 % |
|      4924 |     240     1816     3840 |     1297      729     82 |  0.002 % |
|      7486 |     240     1816     3840 |     1427     1107     90 |  0.002 % |
|     11330 |     240     1816     3840 |     1570     1428     90 |  0.002 % |
|     17096 |     240     1816     3840 |     1727      953     84 |  0.002 % |
|     25745 |     240     1816     3840 |     1899     1529     89 |  0.002 % |
|     38719 |     240     1816     3840 |     2089     1296     76 |  0.002 % |
|     58180 |     240     1816     3840 |     2298     1474     70 |  0.002 % |
|     87372 |     240     1816     3840 |     2528     1432     76 |  0.002 % |
|    131161 |     240     1816     3840 |     2781     2257     87 |  0.002 % |
|    196845 |     240     1816     3840 |     3059     1912     82 |  0.002 % |
|    295371 |     240     1816     3840 |     3365     3022     98 |  0.002 % |
|    443160 |     240     1816     3840 |     3702     3254     87 |  0.002 % |
|    664843 |     240     1816     3840 |     4072     3540     92 |  0.002 % |
|    997368 |     240     1816     3840 |     4479     4018     81 |  0.002 % |
|   1496156 |     240     1816     3840 |     4927     2640     76 |  0.002 % |
|   2244338 |     240     1816     3840 |     5420     4301     89 |  0.002 % |
===============================================================================
restarts              : 4095
conflicts             : 2423252        (20566 /sec)
symconflicts          : 158055         (1341 /sec)
decisions             : 3896192        (0.00 % random) (33067 /sec)
propagations          : 51745312       (439162 /sec)
sympropagations       : 983870         (8350 /sec)
conflict literals     : 222168182      (7.17 % deleted)
literals     : 222168182      (7.17 % deleted)

HEURISTIC USAGES
random                : 0           
activity w/ lookahead : 0           
activity no lookahead : 0           
original sp           : 3896192     
sym count             : 0           

Memory used           : 15.00 MB
CPU time              : 117.827 s

UNSATISFIABLE
